%%% static parameters %%%
timespan = 1;
Fact = [3];
Distr1 = [10];
Distr2 = [20];
Clients_N = [40];
Demand_W = [15];
Lt0 = [4];
Lt1 = [4];
SS_ = [0.85];
DS_D = [7];
K = [200];
MA = [500];
%%% dynamic parameters %%%
lost_ratio_sales_ret_th = 0.3113860344643876;
lost_ratio_sales_ret_w = 24;
lost_ratio_sales_dis_th = 0.04139704877316763;
lost_ratio_sales_dis_w = 85;
lost_ratio_sales_fac_th = 0.9872271481897366;
lost_ratio_sales_fac_w = 64;
stock_customer_MA_mean_relative_th = 0.45030531529234485;
stock_customer_MA_mean_relative_w = 39;
stock_distributor_MA_mean_relative_th = 0.7713913730711032;
stock_distributor_MA_mean_relative_w = 68;
stock_retailer_MA_mean_relative_th = 0.4572869962764926;
stock_retailer_MA_mean_relative_w = 23;
stock_factory_MA_mean_relative_th = 0.5274344632287346;
stock_factory_MA_mean_relative_w = 44;
